ITEM = _(1..40);
capacity = 1185;
profits = [24, 21, 70, 76, 20, 41, 73, 87, 25, 22, 59, 26, 28, 42, 20, 23, 25, 86, 23, 77, 53, 63, 21, 41, 45, 68, 36, 84, 28, 32, 29, 57, 26, 28, 41, 58, 44, 38, 35, 34];
weights = [53, 27, 69, 69, 19, 45, 97, 94, 82, 56, 52, 18, 69, 55, 25, 28, 38, 85, 28, 98, 94, 67, 36, 47, 81, 78, 83, 82, 49, 39, 19, 90, 85, 22, 79, 71, 51, 87, 33, 70];
